c instance by G2
c solution = 1001001111
c Known solution cost is 2176 
p cnf 10 30
w 41 440 896 980 659 397 170 385 66 534
-10 6 8 0
-9 10 7 0
-5 -4 -9 0
7 -5 -9 0
2 -4 7 0
6 10 1 0
-5 -10 4 0
7 2 -3 0
-3 -5 -9 0
-6 -10 -7 0
-1 4 3 0
-9 1 8 0
-1 4 -7 0
-5 -6 -7 0
2 1 6 0
-1 -5 10 0
5 -9 8 0
1 10 -5 0
5 10 -4 0
-3 -8 4 0
-8 9 -4 0
3 4 -1 0
-5 -7 -10 0
-2 -10 6 0
-7 -3 -8 0
-3 7 8 0
4 1 -2 0
1 -10 9 0
6 3 4 0
-3 -6 10 0
